0 0 1
0 1 2
0 2 3
0 3 2
16 0 2
16 2 0
32 0 2
32 2 0
48 0 3
48 2 0
50 1 3
50 2 1
100 0 3
100 2 1
100 3 1
116 0 3
132 0 3
148 0 3
150 2 0
150 3 1
166 2 1
166 3 2
182 2 0
182 3 1
198 2 3
198 3 2
200 1 3
200 2 1
200 3 2
212 3 2
224 3 2
225 2 3
236 3 1
248 3 1
250 0 2
250 1 3
250 2 1
250 3 1
275 0 1
275 1 2
275 2 1
300 0 3
300 1 3
350 0 3
350 2 0
350 3 2
375 0 3
375 2 0
375 3 2
400 2 3
425 2 0
450 2 3
450 3 2
500 0 3
500 1 0
500 2 0
525 0 3
550 0 1
550 1 2
550 3 0
575 0 2
575 1 3
600 0 3
600 1 3
600 2 3
625 0 3
650 0 3
650 1 3
650 3 0
700 1 0
700 3 0
725 1 2
750 0 3
750 1 0
750 2 1
750 3 2
766 0 3
766 3 0
775 1 2
782 0 1
782 3 1
798 0 1
798 3 2
800 0 2
850 1 2
850 2 0
900 1 3
900 3 2
925 3 0
950 2 0
950 3 0
966 2 3
975 3 1
982 2 0
998 2 1
1000 0 1
1000 2 3
1000 3 1
1010 0 2
1016 2 0
